************************************************************************
file with basedata            : mm13_.bas
initial value random generator: 1378115193
************************************************************************
projects                      :  1
jobs (incl. supersource/sink ):  12
horizon                       :  79
RESOURCES
  - renewable                 :  2   R
  - nonrenewable              :  2   N
  - doubly constrained        :  0   D
************************************************************************
PROJECT INFORMATION:
pronr.  #jobs rel.date duedate tardcost  MPM-Time
    1     10      0       10        4       10
************************************************************************
PRECEDENCE RELATIONS:
jobnr.    #modes  #successors   successors
   0        1          3           1   2   3
   1        3          2           4   5
   2        3          1           8
   3        3          3           6   7   9
   4        3          1           9
   5        3          2           8   9
   6        3          2           8  10
   7        3          1          10
   8        3          1          11
   9        3          1          11
  10        3          1          11
  11        1          0        
************************************************************************
REQUESTS/DURATIONS:
jobnr. mode duration  R 1  R 2  R 3  R 4  E(W 1)
------------------------------------------------------------------------
  0      1     0       0    0    0    0     0
  1      1     4       0    2    5    8    60
  2      1     4       0    7    7    6    80
  3      1     2       7    0   10    4    42
  4      1     1       0    4    8    7    19
  5      1     1       7    0    5    9    21
  6      1     4       0    6    8    7    84
  7      1     1       8    0    7    7    22
  8      1     1       6    0    8    7    21
  9      1     4       0    4    8    4    64
 10      1     4       6    0    5    9    80
 11      1     0       0    0    0    0     0
************************************************************************
RESOURCEAVAILABILITIES:
  R 1
   118
************************************************************************
RESOURCE LIMITS:
jobnr.  l(R 1)  u(R 1)
------------------------------------------------------------------------
  0        0       0
  1        8      15
  2       11      20
  3       11      21
  4       10      19
  5       12      21
  6       11      21
  7       12      22
  8       11      21
  9        8      16
 10       11      20
 11        0       0
************************************************************************
SCENARIOS:
------------------------------------------------------------------------
RESOURCE k = 1
s = 1: (0, 81, 97, 46, 25, 19, 77, 21, 15, 41, 58, 0)
s = 2: (0, 67, 92, 33, 17, 20, 83, 36, 14, 62, 79, 0)
s = 3: (0, 58, 69, 40, 19, 24, 67, 40, 22, 56, 74, 0)
s = 4: (0, 44, 93, 47, 18, 23, 81, 27, 14, 56, 59, 0)
s = 5: (0, 84, 70, 44, 17, 23, 60, 36, 14, 59, 49, 0)
s = 6: (0, 49, 56, 65, 17, 16, 58, 24, 24, 51, 54, 0)
s = 7: (0, 41, 71, 69, 18, 16, 93, 22, 22, 43, 46, 0)
s = 8: (0, 119, 67, 67, 15, 21, 96, 20, 26, 104, 96, 0)
s = 9: (0, 53, 88, 49, 14, 15, 80, 28, 12, 71, 56, 0)
s = 10: (0, 48, 79, 52, 15, 34, 72, 18, 28, 74, 101, 0)
s = 11: (0, 72, 76, 24, 14, 22, 48, 20, 18, 63, 83, 0)
s = 12: (0, 41, 72, 47, 29, 32, 66, 24, 16, 70, 65, 0)
s = 13: (0, 96, 107, 30, 27, 37, 136, 30, 13, 65, 71, 0)
s = 14: (0, 52, 82, 49, 15, 20, 113, 27, 28, 77, 118, 0)
s = 15: (0, 72, 65, 35, 25, 34, 61, 32, 19, 49, 58, 0)
s = 16: (0, 52, 118, 42, 19, 16, 53, 26, 23, 56, 44, 0)
s = 17: (0, 57, 79, 49, 23, 25, 83, 24, 14, 44, 79, 0)
s = 18: (0, 37, 67, 36, 18, 35, 75, 18, 19, 70, 64, 0)
s = 19: (0, 64, 97, 44, 18, 21, 92, 19, 29, 71, 118, 0)
s = 20: (0, 60, 96, 32, 16, 17, 80, 18, 25, 54, 80, 0)
s = 21: (0, 47, 70, 38, 19, 15, 73, 28, 25, 41, 116, 0)
s = 22: (0, 62, 107, 48, 21, 24, 108, 17, 26, 45, 55, 0)
s = 23: (0, 49, 74, 32, 22, 32, 67, 23, 13, 46, 108, 0)
s = 24: (0, 54, 88, 73, 14, 17, 102, 22, 12, 84, 84, 0)
s = 25: (0, 53, 130, 43, 11, 25, 74, 16, 28, 89, 59, 0)
s = 26: (0, 34, 75, 32, 20, 19, 105, 20, 20, 49, 65, 0)
s = 27: (0, 76, 62, 48, 18, 21, 76, 24, 17, 45, 64, 0)
s = 28: (0, 42, 55, 53, 20, 24, 53, 14, 16, 61, 60, 0)
s = 29: (0, 71, 90, 47, 19, 20, 57, 29, 21, 91, 98, 0)
s = 30: (0, 57, 88, 42, 23, 24, 94, 17, 27, 41, 125, 0)
s = 31: (0, 54, 60, 47, 15, 18, 103, 17, 19, 48, 98, 0)
s = 32: (0, 87, 72, 45, 14, 29, 60, 25, 20, 41, 94, 0)
s = 33: (0, 51, 72, 47, 21, 18, 54, 25, 31, 66, 92, 0)
s = 34: (0, 53, 114, 39, 28, 17, 52, 24, 32, 57, 68, 0)
s = 35: (0, 57, 86, 36, 25, 22, 61, 15, 26, 58, 95, 0)
s = 36: (0, 48, 95, 35, 24, 26, 106, 30, 29, 55, 78, 0)
s = 37: (0, 47, 47, 60, 19, 19, 107, 14, 29, 50, 65, 0)
s = 38: (0, 77, 117, 31, 20, 28, 100, 15, 23, 60, 101, 0)
s = 39: (0, 109, 100, 61, 20, 20, 123, 17, 34, 59, 50, 0)
s = 40: (0, 55, 88, 33, 29, 16, 100, 21, 24, 82, 68, 0)
s = 41: (0, 73, 82, 49, 17, 23, 59, 24, 12, 55, 73, 0)
s = 42: (0, 60, 88, 48, 15, 16, 57, 23, 20, 52, 55, 0)
s = 43: (0, 90, 63, 37, 21, 26, 84, 12, 29, 73, 79, 0)
s = 44: (0, 42, 66, 80, 19, 14, 78, 24, 22, 71, 50, 0)
s = 45: (0, 68, 109, 24, 15, 16, 77, 23, 17, 88, 73, 0)
s = 46: (0, 87, 57, 45, 14, 25, 82, 29, 17, 64, 48, 0)
s = 47: (0, 56, 127, 50, 11, 21, 55, 22, 19, 42, 47, 0)
s = 48: (0, 89, 86, 32, 31, 35, 112, 16, 32, 44, 81, 0)
s = 49: (0, 47, 53, 48, 17, 26, 75, 19, 19, 62, 90, 0)
s = 50: (0, 80, 55, 36, 22, 35, 48, 23, 28, 93, 105, 0)
s = 51: (0, 65, 50, 33, 20, 18, 117, 14, 37, 98, 97, 0)
s = 52: (0, 73, 74, 59, 13, 23, 60, 24, 29, 42, 102, 0)
s = 53: (0, 68, 111, 48, 19, 21, 102, 17, 18, 53, 45, 0)
s = 54: (0, 37, 52, 39, 16, 31, 101, 28, 16, 71, 59, 0)
s = 55: (0, 96, 86, 35, 17, 23, 93, 19, 16, 73, 70, 0)
s = 56: (0, 62, 117, 58, 17, 27, 123, 25, 24, 65, 59, 0)
s = 57: (0, 58, 105, 44, 26, 29, 117, 28, 21, 60, 59, 0)
s = 58: (0, 73, 105, 25, 15, 25, 78, 22, 35, 45, 71, 0)
s = 59: (0, 52, 100, 55, 20, 23, 60, 19, 17, 91, 88, 0)
s = 60: (0, 45, 77, 61, 20, 29, 92, 25, 18, 80, 58, 0)
s = 61: (0, 52, 102, 43, 33, 37, 87, 22, 21, 62, 57, 0)
s = 62: (0, 53, 113, 42, 23, 31, 68, 20, 15, 76, 47, 0)
s = 63: (0, 56, 45, 38, 16, 15, 105, 15, 15, 99, 88, 0)
s = 64: (0, 60, 57, 48, 27, 19, 53, 18, 26, 42, 118, 0)
s = 65: (0, 62, 56, 28, 22, 26, 84, 24, 16, 68, 68, 0)
s = 66: (0, 56, 61, 54, 17, 19, 112, 23, 20, 61, 82, 0)
s = 67: (0, 55, 120, 53, 12, 19, 76, 30, 23, 76, 51, 0)
s = 68: (0, 46, 50, 55, 34, 26, 122, 28, 27, 35, 106, 0)
s = 69: (0, 58, 51, 30, 19, 17, 61, 21, 14, 85, 81, 0)
s = 70: (0, 81, 121, 57, 21, 25, 60, 25, 17, 54, 80, 0)
s = 71: (0, 44, 90, 38, 16, 15, 62, 17, 28, 84, 85, 0)
s = 72: (0, 48, 101, 33, 15, 29, 51, 21, 22, 43, 57, 0)
s = 73: (0, 85, 84, 46, 14, 13, 79, 21, 22, 87, 83, 0)
s = 74: (0, 99, 49, 24, 13, 18, 62, 30, 13, 96, 69, 0)
s = 75: (0, 39, 81, 53, 13, 17, 66, 26, 14, 54, 47, 0)
s = 76: (0, 52, 61, 42, 21, 32, 109, 24, 18, 77, 94, 0)
s = 77: (0, 86, 71, 46, 13, 20, 107, 16, 14, 71, 109, 0)
s = 78: (0, 90, 72, 27, 18, 24, 61, 26, 17, 50, 48, 0)
s = 79: (0, 63, 90, 51, 16, 20, 51, 23, 17, 47, 49, 0)
s = 80: (0, 74, 79, 46, 21, 18, 53, 23, 12, 42, 43, 0)
s = 81: (0, 73, 72, 27, 19, 20, 89, 31, 22, 41, 73, 0)
s = 82: (0, 37, 56, 36, 27, 34, 107, 33, 18, 79, 54, 0)
s = 83: (0, 74, 81, 34, 19, 31, 107, 26, 19, 85, 97, 0)
s = 84: (0, 75, 71, 23, 20, 30, 58, 17, 12, 37, 98, 0)
s = 85: (0, 70, 48, 26, 12, 21, 103, 21, 23, 60, 82, 0)
s = 86: (0, 99, 82, 40, 16, 13, 97, 16, 18, 73, 81, 0)
s = 87: (0, 44, 84, 64, 12, 31, 113, 33, 29, 51, 57, 0)
s = 88: (0, 82, 75, 68, 27, 29, 75, 29, 18, 56, 55, 0)
s = 89: (0, 36, 110, 46, 15, 24, 67, 16, 35, 104, 88, 0)
s = 90: (0, 76, 70, 27, 19, 20, 110, 18, 15, 87, 91, 0)
s = 91: (0, 65, 78, 46, 24, 16, 69, 20, 16, 61, 98, 0)
s = 92: (0, 75, 60, 41, 14, 29, 81, 24, 16, 94, 92, 0)
s = 93: (0, 94, 85, 68, 24, 22, 86, 16, 24, 66, 74, 0)
s = 94: (0, 79, 51, 36, 12, 19, 63, 19, 27, 47, 89, 0)
s = 95: (0, 68, 55, 40, 13, 18, 64, 20, 19, 100, 81, 0)
s = 96: (0, 66, 77, 38, 19, 21, 119, 23, 17, 54, 62, 0)
s = 97: (0, 43, 85, 51, 18, 28, 109, 28, 17, 55, 92, 0)
s = 98: (0, 44, 70, 53, 14, 13, 98, 36, 13, 58, 74, 0)
s = 99: (0, 45, 73, 70, 24, 29, 114, 33, 20, 80, 79, 0)
s = 100: (0, 70, 70, 53, 14, 21, 83, 18, 26, 77, 48, 0)
s = 101: (0, 67, 115, 24, 18, 28, 110, 33, 29, 53, 66, 0)
s = 102: (0, 48, 78, 44, 17, 33, 69, 17, 32, 51, 75, 0)
s = 103: (0, 82, 81, 39, 23, 25, 74, 14, 31, 66, 75, 0)
s = 104: (0, 79, 60, 47, 16, 24, 58, 29, 13, 46, 91, 0)
s = 105: (0, 95, 60, 30, 14, 31, 64, 30, 21, 65, 74, 0)
s = 106: (0, 69, 92, 49, 17, 22, 101, 31, 26, 106, 90, 0)
s = 107: (0, 47, 90, 41, 18, 15, 119, 22, 23, 57, 110, 0)
s = 108: (0, 57, 77, 50, 15, 13, 121, 18, 13, 66, 55, 0)
s = 109: (0, 48, 92, 35, 27, 16, 96, 14, 27, 44, 116, 0)
s = 110: (0, 42, 45, 43, 19, 13, 61, 20, 27, 55, 47, 0)
s = 111: (0, 68, 76, 28, 13, 35, 90, 18, 37, 47, 89, 0)
s = 112: (0, 40, 80, 35, 19, 29, 77, 20, 21, 58, 104, 0)
s = 113: (0, 56, 108, 57, 18, 20, 121, 20, 16, 54, 57, 0)
s = 114: (0, 80, 79, 41, 15, 14, 89, 20, 29, 44, 67, 0)
s = 115: (0, 41, 83, 54, 21, 17, 97, 28, 19, 77, 91, 0)
s = 116: (0, 95, 72, 49, 17, 15, 143, 20, 28, 68, 73, 0)
s = 117: (0, 60, 64, 46, 16, 15, 74, 14, 23, 48, 53, 0)
s = 118: (0, 86, 43, 37, 11, 21, 131, 24, 13, 89, 110, 0)
s = 119: (0, 40, 60, 29, 17, 23, 119, 16, 21, 43, 104, 0)
s = 120: (0, 32, 114, 35, 27, 26, 86, 20, 14, 57, 80, 0)
s = 121: (0, 40, 93, 52, 18, 19, 71, 33, 17, 68, 67, 0)
s = 122: (0, 60, 60, 55, 21, 28, 50, 20, 30, 76, 137, 0)
s = 123: (0, 48, 51, 32, 12, 15, 143, 16, 22, 68, 84, 0)
s = 124: (0, 73, 66, 67, 22, 31, 53, 13, 17, 105, 78, 0)
s = 125: (0, 67, 77, 50, 26, 18, 92, 13, 15, 51, 60, 0)
s = 126: (0, 43, 119, 35, 18, 17, 90, 30, 20, 57, 103, 0)
s = 127: (0, 72, 57, 47, 15, 19, 135, 16, 23, 46, 60, 0)
s = 128: (0, 48, 84, 49, 19, 20, 134, 18, 20, 48, 71, 0)
s = 129: (0, 50, 61, 80, 15, 14, 58, 33, 24, 40, 46, 0)
s = 130: (0, 47, 96, 40, 24, 25, 68, 21, 20, 48, 105, 0)
s = 131: (0, 89, 64, 25, 15, 19, 62, 13, 19, 74, 80, 0)
s = 132: (0, 69, 54, 35, 19, 12, 56, 19, 23, 51, 69, 0)
s = 133: (0, 72, 58, 37, 20, 20, 74, 15, 24, 43, 103, 0)
s = 134: (0, 58, 43, 49, 17, 15, 79, 25, 17, 59, 57, 0)
s = 135: (0, 43, 73, 35, 20, 15, 59, 22, 13, 39, 49, 0)
s = 136: (0, 36, 58, 25, 20, 21, 58, 21, 23, 67, 66, 0)
s = 137: (0, 47, 61, 35, 16, 13, 98, 23, 14, 58, 106, 0)
s = 138: (0, 59, 109, 49, 19, 31, 51, 30, 20, 73, 69, 0)
s = 139: (0, 34, 57, 77, 18, 18, 94, 34, 35, 74, 75, 0)
s = 140: (0, 115, 69, 40, 13, 19, 102, 19, 12, 93, 71, 0)
s = 141: (0, 65, 110, 37, 19, 35, 70, 19, 26, 37, 45, 0)
s = 142: (0, 71, 46, 54, 25, 14, 79, 15, 16, 64, 83, 0)
s = 143: (0, 53, 53, 33, 19, 14, 80, 28, 24, 72, 88, 0)
s = 144: (0, 84, 68, 37, 16, 13, 59, 23, 19, 40, 67, 0)
s = 145: (0, 85, 58, 42, 15, 15, 62, 16, 18, 100, 81, 0)
s = 146: (0, 55, 81, 42, 16, 19, 49, 31, 22, 62, 101, 0)
s = 147: (0, 32, 102, 46, 26, 28, 105, 20, 20, 100, 99, 0)
s = 148: (0, 60, 60, 51, 29, 18, 55, 18, 26, 52, 125, 0)
s = 149: (0, 52, 49, 44, 30, 27, 96, 19, 18, 64, 86, 0)
s = 150: (0, 58, 104, 38, 22, 22, 71, 15, 22, 72, 61, 0)
s = 151: (0, 57, 108, 62, 27, 25, 70, 20, 13, 46, 56, 0)
s = 152: (0, 60, 58, 28, 26, 28, 65, 24, 12, 49, 77, 0)
s = 153: (0, 53, 70, 55, 21, 25, 62, 23, 28, 53, 123, 0)
s = 154: (0, 59, 56, 39, 19, 21, 63, 26, 26, 46, 77, 0)
s = 155: (0, 66, 113, 38, 19, 29, 113, 24, 13, 46, 73, 0)
s = 156: (0, 73, 71, 41, 19, 30, 80, 20, 13, 46, 131, 0)
s = 157: (0, 52, 91, 45, 14, 21, 100, 22, 28, 52, 84, 0)
s = 158: (0, 74, 66, 36, 13, 15, 70, 14, 17, 54, 84, 0)
s = 159: (0, 59, 87, 45, 30, 18, 70, 28, 25, 35, 111, 0)
s = 160: (0, 44, 89, 41, 13, 15, 62, 42, 16, 88, 50, 0)
s = 161: (0, 64, 101, 45, 22, 29, 100, 15, 38, 67, 124, 0)
s = 162: (0, 48, 82, 29, 26, 15, 90, 31, 13, 43, 63, 0)
s = 163: (0, 52, 62, 28, 16, 21, 92, 30, 23, 62, 90, 0)
s = 164: (0, 64, 78, 49, 23, 13, 81, 27, 22, 73, 117, 0)
s = 165: (0, 56, 104, 33, 19, 17, 67, 23, 27, 84, 74, 0)
s = 166: (0, 67, 61, 29, 22, 33, 69, 25, 17, 79, 73, 0)
s = 167: (0, 46, 72, 39, 17, 24, 72, 23, 22, 75, 91, 0)
s = 168: (0, 37, 118, 50, 27, 19, 74, 22, 18, 66, 138, 0)
s = 169: (0, 57, 51, 44, 24, 28, 55, 25, 17, 58, 111, 0)
s = 170: (0, 62, 85, 33, 13, 27, 77, 28, 13, 61, 65, 0)
s = 171: (0, 54, 64, 37, 27, 19, 68, 17, 19, 84, 114, 0)
s = 172: (0, 46, 65, 50, 21, 41, 88, 31, 17, 62, 55, 0)
s = 173: (0, 65, 66, 43, 29, 27, 109, 14, 13, 70, 69, 0)
s = 174: (0, 47, 81, 29, 25, 25, 82, 21, 25, 71, 86, 0)
s = 175: (0, 88, 50, 68, 21, 29, 59, 25, 19, 89, 68, 0)
s = 176: (0, 47, 62, 32, 18, 18, 55, 28, 22, 65, 60, 0)
s = 177: (0, 70, 113, 32, 11, 18, 122, 22, 16, 67, 53, 0)
s = 178: (0, 46, 83, 33, 18, 13, 84, 21, 35, 55, 85, 0)
s = 179: (0, 46, 49, 38, 16, 25, 90, 27, 19, 65, 82, 0)
s = 180: (0, 37, 51, 50, 24, 18, 116, 25, 18, 63, 84, 0)
s = 181: (0, 46, 56, 44, 20, 22, 57, 29, 17, 77, 67, 0)
s = 182: (0, 59, 71, 27, 16, 26, 69, 13, 25, 60, 106, 0)
s = 183: (0, 92, 51, 22, 12, 14, 98, 16, 17, 87, 78, 0)
s = 184: (0, 81, 55, 38, 16, 25, 69, 25, 20, 103, 71, 0)
s = 185: (0, 109, 98, 40, 12, 20, 111, 18, 36, 50, 100, 0)
s = 186: (0, 60, 72, 36, 10, 17, 54, 20, 13, 43, 64, 0)
s = 187: (0, 52, 88, 37, 27, 20, 51, 34, 13, 48, 62, 0)
s = 188: (0, 74, 121, 33, 13, 20, 90, 20, 22, 38, 102, 0)
s = 189: (0, 60, 57, 45, 14, 19, 75, 15, 28, 55, 80, 0)
s = 190: (0, 63, 70, 33, 26, 29, 59, 22, 38, 81, 58, 0)
s = 191: (0, 51, 91, 42, 20, 15, 96, 26, 21, 64, 76, 0)
s = 192: (0, 66, 60, 59, 15, 19, 62, 42, 22, 73, 66, 0)
s = 193: (0, 33, 46, 28, 18, 27, 115, 27, 13, 56, 64, 0)
s = 194: (0, 67, 66, 51, 13, 15, 48, 35, 25, 69, 59, 0)
s = 195: (0, 52, 88, 38, 15, 23, 56, 23, 15, 77, 115, 0)
s = 196: (0, 47, 68, 61, 16, 23, 66, 26, 15, 82, 98, 0)
s = 197: (0, 78, 102, 30, 18, 13, 83, 40, 31, 57, 131, 0)
s = 198: (0, 63, 68, 59, 11, 15, 113, 17, 18, 59, 124, 0)
s = 199: (0, 38, 67, 27, 19, 23, 98, 15, 23, 75, 77, 0)
s = 200: (0, 55, 97, 43, 23, 14, 58, 26, 17, 50, 44, 0)
************************************************************************
ES/LS-VALUES:
jobnr.   ES(i)    LS(i)
------------------------------------------------------------------------
  0        0        0
  1        0       62
  2        0       70
  3        0       61
  4        7       70
  5        7       70
  6        3       65
  7        3       70
  8        9       77
  9        8       72
 10        9       72
 11       15       79
************************************************************************
BIG-M-VALUES:
M1 = 15, M2 = 143
************************************************************************
